VALUE 345
32 33
33 34
43 88
32 78
34 79
79 80
80 81
81 82
82 83
83 84
84 85
85 86
86 87
87 88
90 91
91 92
92 93
93 94
94 95
95 96
96 97
97 98
98 99
99 100
100 101
101 102
102 103
103 104
104 105
105 106
106 107
107 108
108 109
109 110
110 111
111 112
112 113
113 114
114 115
115 116
116 117
117 118
118 119
119 120
120 121
121 122
78 122
88 130
97 136
122 158
130 167
158 194
167 205

